\ENCODING=ISO-8859-1
\Problem name: instances

Maximize
 obj:
Subject To
 c1: 495 x1 + 226 x2 + 419 x3 + 468 x4 + 535 x5 + 730 x6 + 161 x7 + 607 x8
     + 475 x9 + 313 x10 + 410 x11 + 948 x12 + 673 x13 + 439 x14 + 701 x15
     + 101 x16 + 918 x17 + 91 x18 + 615 x19 + 265 x20 + 989 x21 + 952 x22
     + 945 x23 + 48 x24 + 3 x25 + 262 x26 + 204 x27 + 388 x28 + 758 x29
     + 865 x30 + 512 x31 + 253 x32 + 91 x33 + 931 x34 + 720 x35 + 626 x36
     + 660 x37 + 880 x38 + 232 x39 + 134 x40 + 193 x41 + 642 x42 + 82 x43
     + 865 x44 + 81 x45 + 782 x46 + 966 x47 + 998 x48 + 873 x49 + 581 x50
     + 262 x51 + 862 x52 + 532 x53 + 207 x54 + 909 x55 + 534 x56 + 469 x57
     + 113 x58 + 922 x59 + 226 x60 + 978 x61 + 434 x62 + 479 x63 + 68 x64
     + 364 x65 + 198 x66 + 693 x67 + 23 x68 + 78 x69 + 925 x70 + 157 x71
     + 270 x72 + 566 x73 + 239 x74 + 135 x75 + 647 x76 + 20 x77 + 101 x78
     + 644 x79 + 893 x80 + 681 x81 + 906 x82 + 754 x83 + 213 x84 + 113 x85
     + 663 x86 + 747 x87 + 581 x88 + 775 x89 + 668 x90 <= 22577
Bounds
 0 <= x1 <= 1
 0 <= x2 <= 1
 0 <= x3 <= 1
 0 <= x4 <= 1
 0 <= x5 <= 1
 0 <= x6 <= 1
 0 <= x7 <= 1
 0 <= x8 <= 1
 0 <= x9 <= 1
 0 <= x10 <= 1
 0 <= x11 <= 1
 0 <= x12 <= 1
 0 <= x13 <= 1
 0 <= x14 <= 1
 0 <= x15 <= 1
 0 <= x16 <= 1
 0 <= x17 <= 1
 0 <= x18 <= 1
 0 <= x19 <= 1
 0 <= x20 <= 1
 0 <= x21 <= 1
 0 <= x22 <= 1
 0 <= x23 <= 1
 0 <= x24 <= 1
 0 <= x25 <= 1
 0 <= x26 <= 1
 0 <= x27 <= 1
 0 <= x28 <= 1
 0 <= x29 <= 1
 0 <= x30 <= 1
 0 <= x31 <= 1
 0 <= x32 <= 1
 0 <= x33 <= 1
 0 <= x34 <= 1
 0 <= x35 <= 1
 0 <= x36 <= 1
 0 <= x37 <= 1
 0 <= x38 <= 1
 0 <= x39 <= 1
 0 <= x40 <= 1
 0 <= x41 <= 1
 0 <= x42 <= 1
 0 <= x43 <= 1
 0 <= x44 <= 1
 0 <= x45 <= 1
 0 <= x46 <= 1
 0 <= x47 <= 1
 0 <= x48 <= 1
 0 <= x49 <= 1
 0 <= x50 <= 1
 0 <= x51 <= 1
 0 <= x52 <= 1
 0 <= x53 <= 1
 0 <= x54 <= 1
 0 <= x55 <= 1
 0 <= x56 <= 1
 0 <= x57 <= 1
 0 <= x58 <= 1
 0 <= x59 <= 1
 0 <= x60 <= 1
 0 <= x61 <= 1
 0 <= x62 <= 1
 0 <= x63 <= 1
 0 <= x64 <= 1
 0 <= x65 <= 1
 0 <= x66 <= 1
 0 <= x67 <= 1
 0 <= x68 <= 1
 0 <= x69 <= 1
 0 <= x70 <= 1
 0 <= x71 <= 1
 0 <= x72 <= 1
 0 <= x73 <= 1
 0 <= x74 <= 1
 0 <= x75 <= 1
 0 <= x76 <= 1
 0 <= x77 <= 1
 0 <= x78 <= 1
 0 <= x79 <= 1
 0 <= x80 <= 1
 0 <= x81 <= 1
 0 <= x82 <= 1
 0 <= x83 <= 1
 0 <= x84 <= 1
 0 <= x85 <= 1
 0 <= x86 <= 1
 0 <= x87 <= 1
 0 <= x88 <= 1
 0 <= x89 <= 1
 0 <= x90 <= 1
Binaries
 x1  x2  x3  x4  x5  x6  x7  x8  x9  x10  x11  x12  x13  x14  x15  x16  x17 
 x18  x19  x20  x21  x22  x23  x24  x25  x26  x27  x28  x29  x30  x31  x32 
 x33  x34  x35  x36  x37  x38  x39  x40  x41  x42  x43  x44  x45  x46  x47 
 x48  x49  x50  x51  x52  x53  x54  x55  x56  x57  x58  x59  x60  x61  x62 
 x63  x64  x65  x66  x67  x68  x69  x70  x71  x72  x73  x74  x75  x76  x77 
 x78  x79  x80  x81  x82  x83  x84  x85  x86  x87  x88  x89  x90 
End
